c File: data_files/evolved_graphs/g0139.col
c
c Auto generated graph
c
p edge 100 2294
e 1 2
e 1 3
e 1 4
e 1 5
e 1 6
e 1 7
e 1 8
e 1 9
e 1 10
e 1 11
e 1 12
e 1 13
e 1 14
e 1 16
e 1 19
e 1 24
e 1 25
e 1 26
e 1 27
e 1 30
e 1 31
e 1 32
e 1 33
e 1 34
e 1 35
e 1 36
e 1 37
e 1 38
e 1 39
e 1 40
e 1 41
e 1 42
e 1 43
e 1 44
e 1 45
e 1 46
e 1 47
e 1 48
e 1 49
e 1 50
e 1 54
e 1 55
e 1 56
e 1 63
e 1 69
e 1 72
e 1 77
e 1 86
e 1 87
e 1 94
e 1 96
e 1 99
e 1 100
e 2 3
e 2 4
e 2 5
e 2 6
e 2 7
e 2 8
e 2 9
e 2 10
e 2 11
e 2 12
e 2 13
e 2 14
e 2 18
e 2 19
e 2 24
e 2 25
e 2 26
e 2 27
e 2 28
e 2 29
e 2 30
e 2 31
e 2 32
e 2 33
e 2 35
e 2 36
e 2 38
e 2 39
e 2 40
e 2 41
e 2 42
e 2 43
e 2 44
e 2 45
e 2 46
e 2 47
e 2 48
e 2 49
e 2 50
e 2 52
e 2 53
e 2 55
e 2 69
e 2 71
e 2 73
e 2 74
e 2 75
e 2 76
e 2 81
e 2 100
e 3 4
e 3 5
e 3 6
e 3 7
e 3 8
e 3 9
e 3 10
e 3 11
e 3 13
e 3 20
e 3 21
e 3 24
e 3 26
e 3 27
e 3 28
e 3 29
e 3 30
e 3 33
e 3 34
e 3 35
e 3 36
e 3 37
e 3 38
e 3 39
e 3 40
e 3 41
e 3 42
e 3 43
e 3 44
e 3 45
e 3 46
e 3 47
e 3 48
e 3 50
e 3 54
e 3 55
e 3 65
e 3 68
e 3 78
e 3 81
e 3 84
e 3 90
e 3 92
e 3 100
e 4 5
e 4 6
e 4 7
e 4 8
e 4 9
e 4 10
e 4 11
e 4 12
e 4 13
e 4 14
e 4 23
e 4 24
e 4 26
e 4 27
e 4 28
e 4 29
e 4 30
e 4 31
e 4 32
e 4 33
e 4 34
e 4 35
e 4 36
e 4 37
e 4 38
e 4 39
e 4 40
e 4 41
e 4 42
e 4 43
e 4 44
e 4 45
e 4 46
e 4 48
e 4 49
e 4 50
e 4 52
e 4 56
e 4 74
e 4 79
e 4 82
e 4 86
e 4 89
e 4 92
e 4 95
e 4 100
e 5 6
e 5 7
e 5 8
e 5 9
e 5 10
e 5 11
e 5 12
e 5 13
e 5 14
e 5 22
e 5 24
e 5 25
e 5 26
e 5 27
e 5 28
e 5 29
e 5 30
e 5 31
e 5 32
e 5 33
e 5 34
e 5 35
e 5 36
e 5 37
e 5 38
e 5 40
e 5 41
e 5 42
e 5 43
e 5 44
e 5 45
e 5 46
e 5 47
e 5 48
e 5 49
e 5 50
e 5 54
e 5 55
e 5 60
e 5 62
e 5 73
e 5 75
e 5 77
e 5 80
e 5 86
e 5 98
e 5 100
e 6 7
e 6 8
e 6 9
e 6 10
e 6 11
e 6 12
e 6 13
e 6 14
e 6 24
e 6 25
e 6 26
e 6 27
e 6 28
e 6 29
e 6 30
e 6 31
e 6 32
e 6 33
e 6 34
e 6 35
e 6 36
e 6 37
e 6 38
e 6 39
e 6 40
e 6 41
e 6 42
e 6 44
e 6 45
e 6 46
e 6 47
e 6 48
e 6 49
e 6 50
e 6 55
e 6 65
e 6 67
e 6 78
e 6 80
e 6 85
e 6 86
e 6 94
e 6 95
e 6 100
e 7 8
e 7 9
e 7 10
e 7 11
e 7 12
e 7 13
e 7 14
e 7 15
e 7 16
e 7 25
e 7 26
e 7 28
e 7 29
e 7 30
e 7 31
e 7 33
e 7 34
e 7 36
e 7 37
e 7 38
e 7 39
e 7 40
e 7 41
e 7 42
e 7 43
e 7 44
e 7 46
e 7 47
e 7 48
e 7 49
e 7 79
e 7 94
e 7 97
e 7 100
e 8 9
e 8 10
e 8 11
e 8 12
e 8 13
e 8 14
e 8 20
e 8 23
e 8 24
e 8 26
e 8 27
e 8 28
e 8 29
e 8 30
e 8 31
e 8 32
e 8 33
e 8 35
e 8 36
e 8 37
e 8 38
e 8 39
e 8 40
e 8 41
e 8 42
e 8 43
e 8 44
e 8 46
e 8 47
e 8 48
e 8 49
e 8 50
e 8 52
e 8 54
e 8 57
e 8 62
e 8 64
e 8 66
e 8 69
e 8 71
e 8 73
e 8 74
e 8 82
e 8 84
e 8 85
e 8 88
e 8 93
e 8 100
e 9 10
e 9 11
e 9 12
e 9 13
e 9 14
e 9 15
e 9 24
e 9 25
e 9 26
e 9 27
e 9 28
e 9 29
e 9 30
e 9 31
e 9 32
e 9 33
e 9 34
e 9 35
e 9 36
e 9 37
e 9 38
e 9 39
e 9 40
e 9 41
e 9 42
e 9 43
e 9 44
e 9 45
e 9 46
e 9 47
e 9 48
e 9 49
e 9 50
e 9 52
e 9 61
e 9 65
e 9 87
e 9 92
e 9 96
e 9 100
e 10 11
e 10 12
e 10 13
e 10 14
e 10 15
e 10 19
e 10 21
e 10 23
e 10 25
e 10 26
e 10 27
e 10 28
e 10 29
e 10 30
e 10 31
e 10 32
e 10 33
e 10 34
e 10 36
e 10 37
e 10 39
e 10 40
e 10 41
e 10 42
e 10 43
e 10 45
e 10 47
e 10 48
e 10 49
e 10 50
e 10 54
e 10 56
e 10 57
e 10 59
e 10 62
e 10 66
e 10 71
e 10 73
e 10 81
e 10 86
e 10 90
e 10 91
e 10 100
e 11 13
e 11 14
e 11 16
e 11 20
e 11 23
e 11 24
e 11 26
e 11 28
e 11 29
e 11 30
e 11 31
e 11 32
e 11 33
e 11 34
e 11 35
e 11 36
e 11 37
e 11 38
e 11 39
e 11 40
e 11 41
e 11 42
e 11 43
e 11 44
e 11 45
e 11 46
e 11 47
e 11 48
e 11 49
e 11 50
e 11 51
e 11 56
e 11 62
e 11 65
e 11 66
e 11 67
e 11 71
e 11 86
e 11 88
e 11 99
e 11 100
e 12 13
e 12 14
e 12 17
e 12 18
e 12 20
e 12 24
e 12 25
e 12 26
e 12 27
e 12 28
e 12 29
e 12 30
e 12 31
e 12 32
e 12 33
e 12 34
e 12 35
e 12 36
e 12 37
e 12 38
e 12 40
e 12 41
e 12 42
e 12 43
e 12 44
e 12 45
e 12 46
e 12 47
e 12 48
e 12 49
e 12 50
e 12 52
e 12 57
e 12 66
e 12 68
e 12 92
e 12 96
e 12 97
e 12 100
e 13 14
e 13 24
e 13 25
e 13 26
e 13 27
e 13 28
e 13 29
e 13 30
e 13 31
e 13 32
e 13 33
e 13 34
e 13 35
e 13 36
e 13 37
e 13 38
e 13 39
e 13 40
e 13 41
e 13 43
e 13 44
e 13 45
e 13 46
e 13 47
e 13 48
e 13 49
e 13 50
e 13 58
e 13 65
e 13 66
e 13 68
e 13 69
e 13 70
e 13 81
e 13 94
e 13 96
e 13 99
e 13 100
e 14 15
e 14 18
e 14 19
e 14 24
e 14 25
e 14 26
e 14 27
e 14 28
e 14 29
e 14 30
e 14 31
e 14 32
e 14 34
e 14 35
e 14 36
e 14 37
e 14 38
e 14 39
e 14 40
e 14 41
e 14 42
e 14 43
e 14 44
e 14 45
e 14 46
e 14 47
e 14 48
e 14 49
e 14 50
e 14 52
e 14 54
e 14 56
e 14 57
e 14 67
e 14 69
e 14 75
e 14 79
e 14 85
e 14 96
e 14 100
e 15 16
e 15 17
e 15 18
e 15 20
e 15 21
e 15 25
e 15 26
e 15 27
e 15 28
e 15 29
e 15 30
e 15 31
e 15 32
e 15 33
e 15 34
e 15 35
e 15 36
e 15 37
e 15 38
e 15 39
e 15 40
e 15 41
e 15 42
e 15 43
e 15 44
e 15 45
e 15 46
e 15 47
e 15 49
e 15 50
e 15 60
e 15 61
e 15 63
e 15 67
e 15 68
e 15 78
e 15 86
e 15 87
e 15 90
e 15 96
e 15 100
e 16 17
e 16 20
e 16 21
e 16 25
e 16 28
e 16 29
e 16 30
e 16 31
e 16 32
e 16 33
e 16 34
e 16 35
e 16 37
e 16 38
e 16 39
e 16 40
e 16 41
e 16 42
e 16 43
e 16 44
e 16 45
e 16 46
e 16 47
e 16 48
e 16 50
e 16 64
e 16 77
e 16 80
e 16 83
e 16 85
e 16 86
e 16 93
e 16 97
e 17 18
e 17 19
e 17 20
e 17 21
e 17 22
e 17 51
e 17 52
e 17 53
e 17 54
e 17 55
e 17 56
e 17 57
e 17 58
e 17 71
e 17 84
e 17 85
e 17 96
e 18 19
e 18 20
e 18 21
e 18 22
e 18 51
e 18 52
e 18 53
e 18 54
e 18 55
e 18 56
e 18 57
e 18 58
e 18 59
e 18 60
e 18 61
e 18 63
e 18 64
e 18 65
e 18 66
e 18 67
e 18 69
e 18 71
e 18 72
e 18 73
e 18 74
e 18 75
e 18 76
e 18 77
e 18 78
e 18 79
e 18 80
e 18 81
e 18 82
e 18 83
e 18 84
e 18 85
e 18 86
e 18 87
e 18 88
e 18 89
e 18 90
e 18 91
e 18 92
e 18 93
e 19 20
e 19 21
e 19 22
e 19 53
e 19 54
e 19 55
e 19 56
e 19 57
e 19 58
e 19 59
e 19 61
e 19 62
e 19 63
e 19 64
e 19 65
e 19 66
e 19 67
e 19 68
e 19 69
e 19 70
e 19 71
e 19 72
e 19 73
e 19 75
e 19 76
e 19 77
e 19 78
e 19 79
e 19 80
e 19 81
e 19 82
e 19 83
e 19 84
e 19 85
e 19 86
e 19 87
e 19 88
e 19 89
e 19 90
e 19 91
e 19 92
e 19 93
e 19 95
e 19 98
e 20 21
e 20 22
e 20 51
e 20 52
e 20 53
e 20 54
e 20 56
e 20 57
e 20 58
e 20 59
e 20 61
e 20 62
e 20 63
e 20 65
e 20 66
e 20 67
e 20 68
e 20 69
e 20 71
e 20 72
e 20 73
e 20 74
e 20 75
e 20 76
e 20 77
e 20 78
e 20 79
e 20 80
e 20 81
e 20 82
e 20 83
e 20 84
e 20 86
e 20 87
e 20 88
e 20 89
e 20 90
e 20 92
e 20 93
e 21 22
e 21 51
e 21 52
e 21 53
e 21 54
e 21 55
e 21 56
e 21 57
e 21 58
e 21 60
e 21 61
e 21 62
e 21 63
e 21 64
e 21 65
e 21 66
e 21 67
e 21 68
e 21 69
e 21 70
e 21 71
e 21 72
e 21 73
e 21 75
e 21 76
e 21 77
e 21 78
e 21 79
e 21 80
e 21 81
e 21 82
e 21 83
e 21 84
e 21 85
e 21 86
e 21 87
e 21 88
e 21 90
e 21 91
e 21 92
e 21 93
e 22 51
e 22 52
e 22 53
e 22 54
e 22 55
e 22 56
e 22 57
e 22 58
e 22 59
e 22 60
e 22 61
e 22 62
e 22 63
e 22 64
e 22 65
e 22 67
e 22 68
e 22 69
e 22 70
e 22 71
e 22 73
e 22 74
e 22 75
e 22 76
e 22 77
e 22 78
e 22 79
e 22 82
e 22 84
e 22 85
e 22 86
e 22 87
e 22 88
e 22 90
e 22 91
e 22 92
e 22 93
e 22 95
e 23 24
e 23 25
e 23 26
e 23 27
e 23 28
e 23 29
e 23 30
e 23 31
e 23 32
e 23 33
e 23 34
e 23 35
e 23 36
e 23 37
e 23 38
e 23 39
e 23 40
e 23 41
e 23 42
e 23 43
e 23 44
e 23 45
e 23 46
e 23 47
e 23 48
e 23 49
e 23 50
e 23 51
e 23 52
e 23 53
e 23 54
e 23 55
e 23 56
e 23 57
e 23 58
e 23 59
e 23 60
e 23 61
e 23 62
e 23 63
e 23 65
e 23 66
e 23 67
e 23 68
e 23 69
e 23 70
e 23 71
e 23 72
e 23 73
e 23 74
e 23 75
e 23 76
e 23 77
e 23 78
e 23 79
e 23 80
e 23 81
e 23 83
e 23 84
e 23 85
e 23 86
e 23 87
e 23 89
e 23 90
e 23 91
e 23 92
e 23 93
e 24 25
e 24 26
e 24 27
e 24 28
e 24 29
e 24 30
e 24 31
e 24 32
e 24 33
e 24 34
e 24 35
e 24 36
e 24 37
e 24 38
e 24 39
e 24 40
e 24 41
e 24 42
e 24 43
e 24 44
e 24 45
e 24 46
e 24 47
e 24 48
e 24 49
e 24 50
e 24 51
e 24 53
e 24 68
e 24 74
e 24 88
e 24 100
e 25 26
e 25 27
e 25 28
e 25 29
e 25 30
e 25 31
e 25 32
e 25 33
e 25 34
e 25 35
e 25 36
e 25 37
e 25 38
e 25 39
e 25 40
e 25 41
e 25 42
e 25 43
e 25 44
e 25 45
e 25 46
e 25 47
e 25 48
e 25 49
e 25 50
e 25 59
e 25 98
e 26 27
e 26 28
e 26 29
e 26 30
e 26 31
e 26 32
e 26 33
e 26 34
e 26 35
e 26 36
e 26 37
e 26 38
e 26 39
e 26 40
e 26 41
e 26 42
e 26 43
e 26 44
e 26 45
e 26 46
e 26 47
e 26 48
e 26 49
e 26 50
e 26 52
e 26 53
e 26 70
e 26 95
e 27 28
e 27 29
e 27 30
e 27 31
e 27 32
e 27 33
e 27 34
e 27 35
e 27 36
e 27 37
e 27 38
e 27 39
e 27 40
e 27 41
e 27 42
e 27 43
e 27 44
e 27 45
e 27 46
e 27 47
e 27 48
e 27 49
e 27 50
e 27 53
e 27 54
e 28 29
e 28 30
e 28 31
e 28 32
e 28 33
e 28 34
e 28 35
e 28 36
e 28 37
e 28 38
e 28 39
e 28 40
e 28 41
e 28 42
e 28 43
e 28 44
e 28 45
e 28 46
e 28 47
e 28 48
e 28 50
e 28 51
e 28 52
e 28 56
e 28 59
e 28 86
e 28 91
e 28 94
e 29 30
e 29 31
e 29 32
e 29 33
e 29 34
e 29 35
e 29 36
e 29 37
e 29 38
e 29 39
e 29 40
e 29 41
e 29 42
e 29 43
e 29 44
e 29 45
e 29 46
e 29 47
e 29 48
e 29 49
e 29 50
e 29 66
e 29 70
e 29 78
e 29 92
e 30 31
e 30 32
e 30 33
e 30 34
e 30 35
e 30 36
e 30 37
e 30 38
e 30 39
e 30 40
e 30 41
e 30 42
e 30 43
e 30 44
e 30 45
e 30 46
e 30 47
e 30 48
e 30 49
e 30 50
e 30 53
e 30 54
e 30 55
e 30 60
e 30 79
e 31 32
e 31 33
e 31 34
e 31 35
e 31 36
e 31 37
e 31 38
e 31 39
e 31 40
e 31 41
e 31 42
e 31 43
e 31 44
e 31 45
e 31 46
e 31 47
e 31 48
e 31 49
e 31 50
e 31 59
e 32 33
e 32 34
e 32 35
e 32 36
e 32 37
e 32 38
e 32 39
e 32 40
e 32 41
e 32 42
e 32 43
e 32 44
e 32 45
e 32 46
e 32 47
e 32 48
e 32 49
e 32 50
e 32 51
e 32 53
e 32 54
e 32 55
e 32 58
e 32 69
e 32 80
e 33 34
e 33 35
e 33 36
e 33 37
e 33 38
e 33 39
e 33 40
e 33 41
e 33 42
e 33 43
e 33 44
e 33 45
e 33 46
e 33 47
e 33 48
e 33 49
e 33 50
e 33 55
e 33 60
e 33 61
e 33 62
e 33 63
e 33 64
e 33 65
e 33 66
e 33 67
e 33 69
e 33 70
e 33 71
e 33 72
e 33 73
e 33 76
e 33 77
e 33 78
e 33 79
e 33 80
e 33 81
e 33 84
e 33 85
e 33 86
e 33 87
e 33 88
e 33 89
e 33 90
e 33 91
e 33 92
e 33 93
e 33 95
e 33 96
e 33 97
e 33 98
e 33 99
e 33 100
e 34 35
e 34 36
e 34 37
e 34 38
e 34 39
e 34 40
e 34 41
e 34 42
e 34 43
e 34 44
e 34 45
e 34 46
e 34 47
e 34 48
e 34 49
e 34 50
e 34 61
e 34 62
e 34 63
e 34 64
e 34 66
e 34 67
e 34 68
e 34 69
e 34 70
e 34 71
e 34 72
e 34 73
e 34 74
e 34 75
e 34 77
e 34 78
e 34 80
e 34 81
e 34 82
e 34 83
e 34 84
e 34 85
e 34 86
e 34 87
e 34 88
e 34 89
e 34 90
e 34 91
e 34 93
e 34 94
e 34 96
e 34 97
e 34 98
e 34 99
e 34 100
e 35 36
e 35 37
e 35 38
e 35 39
e 35 40
e 35 41
e 35 42
e 35 43
e 35 44
e 35 45
e 35 46
e 35 47
e 35 48
e 35 49
e 35 50
e 35 55
e 35 56
e 35 60
e 35 61
e 35 62
e 35 63
e 35 64
e 35 65
e 35 66
e 35 78
e 36 37
e 36 38
e 36 39
e 36 40
e 36 41
e 36 42
e 36 43
e 36 44
e 36 45
e 36 46
e 36 47
e 36 48
e 36 49
e 36 50
e 36 51
e 36 60
e 36 61
e 36 63
e 36 64
e 36 65
e 36 66
e 36 73
e 36 80
e 36 99
e 37 38
e 37 39
e 37 40
e 37 41
e 37 42
e 37 43
e 37 44
e 37 45
e 37 46
e 37 47
e 37 48
e 37 49
e 37 50
e 37 53
e 37 60
e 37 61
e 37 62
e 37 63
e 37 65
e 37 66
e 37 68
e 37 73
e 37 80
e 38 39
e 38 40
e 38 41
e 38 42
e 38 43
e 38 44
e 38 45
e 38 46
e 38 47
e 38 48
e 38 49
e 38 50
e 38 55
e 38 60
e 38 61
e 38 62
e 38 63
e 38 64
e 38 65
e 38 66
e 38 72
e 38 73
e 38 80
e 39 40
e 39 41
e 39 42
e 39 43
e 39 44
e 39 45
e 39 46
e 39 47
e 39 48
e 39 49
e 39 50
e 39 52
e 39 60
e 39 61
e 39 62
e 39 63
e 39 64
e 39 65
e 39 66
e 39 72
e 39 76
e 40 41
e 40 42
e 40 43
e 40 44
e 40 45
e 40 46
e 40 47
e 40 48
e 40 49
e 40 50
e 40 53
e 40 56
e 40 58
e 40 60
e 40 61
e 40 62
e 40 63
e 40 64
e 40 65
e 40 66
e 40 68
e 40 73
e 40 76
e 40 77
e 41 42
e 41 43
e 41 44
e 41 45
e 41 46
e 41 47
e 41 48
e 41 49
e 41 50
e 41 51
e 41 54
e 41 60
e 41 61
e 41 62
e 41 63
e 41 64
e 41 65
e 41 66
e 41 68
e 41 71
e 41 78
e 41 79
e 42 43
e 42 44
e 42 45
e 42 46
e 42 47
e 42 48
e 42 49
e 42 50
e 42 60
e 42 61
e 42 62
e 42 63
e 42 64
e 42 65
e 42 66
e 42 75
e 42 77
e 43 44
e 43 45
e 43 46
e 43 47
e 43 48
e 43 49
e 43 50
e 43 54
e 43 55
e 43 57
e 43 59
e 43 60
e 43 61
e 43 62
e 43 63
e 43 64
e 43 65
e 43 66
e 43 68
e 43 73
e 43 74
e 44 45
e 44 46
e 44 47
e 44 48
e 44 49
e 44 50
e 44 55
e 44 61
e 44 62
e 44 63
e 44 64
e 44 65
e 44 66
e 44 73
e 44 74
e 44 75
e 45 46
e 45 47
e 45 48
e 45 49
e 45 50
e 45 60
e 45 61
e 45 62
e 45 63
e 45 64
e 45 65
e 45 66
e 45 69
e 45 74
e 46 47
e 46 48
e 46 49
e 46 50
e 46 55
e 46 57
e 46 60
e 46 61
e 46 62
e 46 63
e 46 64
e 46 65
e 46 66
e 46 68
e 46 75
e 46 77
e 47 48
e 47 49
e 47 50
e 47 60
e 47 61
e 47 62
e 47 63
e 47 64
e 47 65
e 47 66
e 47 72
e 47 76
e 47 77
e 47 79
e 48 49
e 48 50
e 48 54
e 48 55
e 48 60
e 48 61
e 48 62
e 48 63
e 48 64
e 48 66
e 48 68
e 48 73
e 48 76
e 49 50
e 49 53
e 49 57
e 49 60
e 49 61
e 49 62
e 49 63
e 49 65
e 49 66
e 49 70
e 49 80
e 50 51
e 50 52
e 50 55
e 50 58
e 50 60
e 50 61
e 50 62
e 50 64
e 50 65
e 50 66
e 50 70
e 51 52
e 51 53
e 51 54
e 51 55
e 51 56
e 51 57
e 51 58
e 51 59
e 51 60
e 51 61
e 51 62
e 51 63
e 51 64
e 51 74
e 51 76
e 51 78
e 51 80
e 52 53
e 52 54
e 52 55
e 52 56
e 52 57
e 52 58
e 52 59
e 52 60
e 52 61
e 52 62
e 52 63
e 52 64
e 52 65
e 52 69
e 52 71
e 52 76
e 52 77
e 53 54
e 53 55
e 53 56
e 53 57
e 53 58
e 53 59
e 53 60
e 53 61
e 53 62
e 53 63
e 53 64
e 53 65
e 53 66
e 53 68
e 53 69
e 53 75
e 54 55
e 54 56
e 54 57
e 54 58
e 54 59
e 54 60
e 54 61
e 54 63
e 54 64
e 54 65
e 54 66
e 54 70
e 54 73
e 55 56
e 55 57
e 55 58
e 55 59
e 55 60
e 55 61
e 55 62
e 55 63
e 55 64
e 55 66
e 55 67
e 55 70
e 55 80
e 56 57
e 56 58
e 56 59
e 56 60
e 56 61
e 56 62
e 56 63
e 56 67
e 56 72
e 56 80
e 57 58
e 57 59
e 57 60
e 57 61
e 57 62
e 57 63
e 57 64
e 57 65
e 57 67
e 57 71
e 57 76
e 58 60
e 58 61
e 58 62
e 58 63
e 58 64
e 58 66
e 58 67
e 58 71
e 58 76
e 58 78
e 58 80
e 59 60
e 59 61
e 59 62
e 59 63
e 59 64
e 59 67
e 59 76
e 60 61
e 60 62
e 60 63
e 60 64
e 60 67
e 61 62
e 61 63
e 61 64
e 61 67
e 62 63
e 62 64
e 62 65
e 62 72
e 62 75
e 63 64
e 63 78
e 64 66
e 64 82
e 65 66
e 65 71
e 67 68
e 67 69
e 67 70
e 67 71
e 67 72
e 67 73
e 67 74
e 67 75
e 67 77
e 67 78
e 67 79
e 67 80
e 67 81
e 67 82
e 67 83
e 67 84
e 67 85
e 67 86
e 67 87
e 67 88
e 67 89
e 67 90
e 67 91
e 67 92
e 67 93
e 67 94
e 67 95
e 67 96
e 67 97
e 67 98
e 67 99
e 67 100
e 68 69
e 68 70
e 68 71
e 68 72
e 68 73
e 68 74
e 68 75
e 68 76
e 68 77
e 68 78
e 68 79
e 68 80
e 68 81
e 68 82
e 68 83
e 68 84
e 68 85
e 68 86
e 68 87
e 68 88
e 68 89
e 68 90
e 68 91
e 68 92
e 68 93
e 68 94
e 68 96
e 68 97
e 68 98
e 68 99
e 68 100
e 69 70
e 69 71
e 69 72
e 69 73
e 69 74
e 69 75
e 69 76
e 69 77
e 69 78
e 69 79
e 69 80
e 69 81
e 69 82
e 69 83
e 69 84
e 69 85
e 69 86
e 69 87
e 69 88
e 69 89
e 69 90
e 69 91
e 69 92
e 69 93
e 69 94
e 69 95
e 69 96
e 69 97
e 69 98
e 69 99
e 69 100
e 70 71
e 70 72
e 70 73
e 70 74
e 70 75
e 70 76
e 70 77
e 70 78
e 70 79
e 70 80
e 70 81
e 70 82
e 70 83
e 70 84
e 70 85
e 70 86
e 70 87
e 70 88
e 70 89
e 70 90
e 70 91
e 70 92
e 70 93
e 70 94
e 70 95
e 70 96
e 70 97
e 70 98
e 70 99
e 70 100
e 71 72
e 71 73
e 71 74
e 71 75
e 71 76
e 71 77
e 71 78
e 71 79
e 71 80
e 71 81
e 71 82
e 71 83
e 71 84
e 71 85
e 71 86
e 71 87
e 71 88
e 71 89
e 71 90
e 71 91
e 71 92
e 71 93
e 71 94
e 71 95
e 71 96
e 71 97
e 71 98
e 71 99
e 71 100
e 72 73
e 72 74
e 72 75
e 72 76
e 72 77
e 72 78
e 72 79
e 72 80
e 72 81
e 72 82
e 72 83
e 72 84
e 72 85
e 72 86
e 72 87
e 72 88
e 72 89
e 72 90
e 72 91
e 72 92
e 72 93
e 72 94
e 72 95
e 72 96
e 72 97
e 72 98
e 72 99
e 72 100
e 73 74
e 73 75
e 73 76
e 73 77
e 73 78
e 73 79
e 73 80
e 73 81
e 73 82
e 73 83
e 73 84
e 73 85
e 73 86
e 73 87
e 73 88
e 73 89
e 73 90
e 73 91
e 73 92
e 73 93
e 73 94
e 73 95
e 73 96
e 73 97
e 73 98
e 73 99
e 73 100
e 74 75
e 74 76
e 74 77
e 74 78
e 74 79
e 74 80
e 74 81
e 74 82
e 74 83
e 74 84
e 74 85
e 74 86
e 74 88
e 74 89
e 74 90
e 74 91
e 74 92
e 74 93
e 74 94
e 74 95
e 74 96
e 74 97
e 74 98
e 74 99
e 74 100
e 75 76
e 75 77
e 75 78
e 75 79
e 75 80
e 75 81
e 75 82
e 75 83
e 75 84
e 75 85
e 75 86
e 75 87
e 75 88
e 75 89
e 75 90
e 75 91
e 75 92
e 75 93
e 75 94
e 75 95
e 75 96
e 75 97
e 75 98
e 75 99
e 75 100
e 76 77
e 76 78
e 76 79
e 76 80
e 76 81
e 76 82
e 76 83
e 76 84
e 76 85
e 76 86
e 76 87
e 76 88
e 76 89
e 76 90
e 76 91
e 76 92
e 76 93
e 76 94
e 76 95
e 76 96
e 76 97
e 76 98
e 76 99
e 76 100
e 77 78
e 77 79
e 77 80
e 77 81
e 77 82
e 77 83
e 77 84
e 77 85
e 77 86
e 77 87
e 77 88
e 77 89
e 77 90
e 77 91
e 77 92
e 77 93
e 77 94
e 77 95
e 77 96
e 77 97
e 77 98
e 77 99
e 77 100
e 78 79
e 78 80
e 78 81
e 78 82
e 78 83
e 78 84
e 78 85
e 78 86
e 78 87
e 78 88
e 78 89
e 78 90
e 78 91
e 78 92
e 78 93
e 78 94
e 78 95
e 78 96
e 78 97
e 78 98
e 78 99
e 78 100
e 79 80
e 79 81
e 79 82
e 79 83
e 79 84
e 79 86
e 79 87
e 79 88
e 79 89
e 79 90
e 79 91
e 79 92
e 79 93
e 79 94
e 79 96
e 79 97
e 79 98
e 79 99
e 79 100
e 80 81
e 80 82
e 80 83
e 80 84
e 80 85
e 80 86
e 80 87
e 80 88
e 80 89
e 80 90
e 80 91
e 80 92
e 80 93
e 80 94
e 80 95
e 80 96
e 80 97
e 80 98
e 80 99
e 80 100
e 81 82
e 81 83
e 81 84
e 81 85
e 81 86
e 81 87
e 81 88
e 81 89
e 81 90
e 81 91
e 81 92
e 81 93
e 81 94
e 81 95
e 81 96
e 81 98
e 81 99
e 81 100
e 82 83
e 82 84
e 82 85
e 82 86
e 82 87
e 82 88
e 82 89
e 82 90
e 82 91
e 82 92
e 82 93
e 82 94
e 82 95
e 82 96
e 82 97
e 82 98
e 82 99
e 82 100
e 83 84
e 83 85
e 83 86
e 83 87
e 83 88
e 83 89
e 83 90
e 83 91
e 83 92
e 83 93
e 83 94
e 83 95
e 83 96
e 83 97
e 83 98
e 83 99
e 83 100
e 84 85
e 84 86
e 84 87
e 84 88
e 84 89
e 84 90
e 84 91
e 84 92
e 84 93
e 84 94
e 84 95
e 84 96
e 84 97
e 84 98
e 84 99
e 84 100
e 85 86
e 85 87
e 85 88
e 85 89
e 85 90
e 85 91
e 85 92
e 85 93
e 85 94
e 85 95
e 85 96
e 85 97
e 85 98
e 85 99
e 85 100
e 86 87
e 86 88
e 86 89
e 86 90
e 86 91
e 86 92
e 86 93
e 86 94
e 86 95
e 86 96
e 86 97
e 86 98
e 86 99
e 86 100
e 87 88
e 87 89
e 87 90
e 87 91
e 87 92
e 87 93
e 87 94
e 87 95
e 87 96
e 87 97
e 87 98
e 87 99
e 87 100
e 88 89
e 88 90
e 88 91
e 88 92
e 88 93
e 88 94
e 88 95
e 88 96
e 88 97
e 88 98
e 88 99
e 88 100
e 89 90
e 89 91
e 89 92
e 89 93
e 89 94
e 89 95
e 89 96
e 89 97
e 89 99
e 89 100
e 90 91
e 90 92
e 90 93
e 90 94
e 90 95
e 90 96
e 90 97
e 90 98
e 90 99
e 90 100
e 91 92
e 91 93
e 91 94
e 91 95
e 91 96
e 91 97
e 91 98
e 91 99
e 91 100
e 92 93
e 92 94
e 92 95
e 92 96
e 92 97
e 92 98
e 92 99
e 92 100
e 93 94
e 93 95
e 93 96
e 93 97
e 93 98
e 93 99
e 93 100
e 94 95
e 94 96
e 94 97
e 94 98
e 94 99
e 94 100
e 95 96
e 95 97
e 95 98
e 95 99
e 95 100
e 96 97
e 96 98
e 96 99
e 96 100
e 97 98
e 97 99
e 97 100
e 98 99
e 98 100
e 99 100
